c description: Pigeonhole principle formula for 1 pigeons and 2 holes
c generator: CNFgen (0.9.0)
c copyright: (C) 2012-2020 Massimo Lauria <massimo.lauria@uniroma1.it>
c url: https://massimolauria.net/cnfgen
c command line: cnfgen php 1 2
c
p cnf 2 1
1 2 0
